data/lp_files/q3/46_0.lp
\ Model foo
\ LP format - for model browsing. Use MPS format to capture full model detail.
Minimize
  z
Subject To
 allocateEach[1]: x[1,1] + x[2,1] + x[3,1] = 1
 allocateEach[2]: x[1,2] + x[2,2] + x[3,2] = 1
 allocateEach[3]: x[1,3] + x[2,3] + x[3,3] = 1
 allocateEach[4]: x[1,4] + x[2,4] + x[3,4] = 1
 allocateEach[5]: x[1,5] + x[2,5] + x[3,5] = 1
 allocateEach[6]: x[1,6] + x[2,6] + x[3,6] = 1
 allocateAllCash: cashProportion[1] + cashProportion[2] + cashProportion[3]
   = 1
 findWorstP[1,2]: z + 0.0230552865772122 cashProportion[1]
   - 0.0230552865772122 cashProportion[2] + 0.0643242495504219 x[1,1]
   + 0.4599990777885369 x[1,2] + 0.0896389542122009 x[1,3]
   + 0.0583298750403468 x[1,4] + 0.0370729008161571 x[1,5]
   + 0.2675796560151243 x[1,6] - 0.0643242495504219 x[2,1]
   - 0.4599990777885369 x[2,2] - 0.0896389542122009 x[2,3]
   - 0.0583298750403468 x[2,4] - 0.0370729008161571 x[2,5]
   - 0.2675796560151243 x[2,6] >= 0
 findWorstP[1,3]: z + 0.0230552865772122 cashProportion[1]
   - 0.0230552865772122 cashProportion[3] + 0.0643242495504219 x[1,1]
   + 0.4599990777885369 x[1,2] + 0.0896389542122009 x[1,3]
   + 0.0583298750403468 x[1,4] + 0.0370729008161571 x[1,5]
   + 0.2675796560151243 x[1,6] - 0.0643242495504219 x[3,1]
   - 0.4599990777885369 x[3,2] - 0.0896389542122009 x[3,3]
   - 0.0583298750403468 x[3,4] - 0.0370729008161571 x[3,5]
   - 0.2675796560151243 x[3,6] >= 0
 findWorstP[2,1]: z - 0.0142641143411406 cashProportion[1]
   + 0.0142641143411406 cashProportion[2] - 0.0650158331669187 x[1,1]
   - 0.0750577696630816 x[1,2] - 0.1692009243146093 x[1,3]
   - 0.1918808661170228 x[1,4] - 0.2080278435511939 x[1,5]
   - 0.2765526488460331 x[1,6] + 0.0650158331669187 x[2,1]
   + 0.0750577696630816 x[2,2] + 0.1692009243146093 x[2,3]
   + 0.1918808661170228 x[2,4] + 0.2080278435511939 x[2,5]
   + 0.2765526488460331 x[2,6] >= 0
 findWorstP[2,3]: z + 0.0142641143411406 cashProportion[2]
   - 0.0142641143411406 cashProportion[3] + 0.0650158331669187 x[2,1]
   + 0.0750577696630816 x[2,2] + 0.1692009243146093 x[2,3]
   + 0.1918808661170228 x[2,4] + 0.2080278435511939 x[2,5]
   + 0.2765526488460331 x[2,6] - 0.0650158331669187 x[3,1]
   - 0.0750577696630816 x[3,2] - 0.1692009243146093 x[3,3]
   - 0.1918808661170228 x[3,4] - 0.2080278435511939 x[3,5]
   - 0.2765526488460331 x[3,6] >= 0
 findWorstP[3,1]: z - 0.0284673195171943 cashProportion[1]
   + 0.0284673195171943 cashProportion[3] - 0.0585288089273514 x[1,1]
   - 0.1959690275563653 x[1,2] - 0.2826235481667047 x[1,3]
   - 0.1641425643361421 x[1,4] - 0.2377021179685721 x[1,5]
   - 0.0325666135276702 x[1,6] + 0.0585288089273514 x[3,1]
   + 0.1959690275563653 x[3,2] + 0.2826235481667047 x[3,3]
   + 0.1641425643361421 x[3,4] + 0.2377021179685721 x[3,5]
   + 0.0325666135276702 x[3,6] >= 0
 findWorstP[3,2]: z - 0.0284673195171943 cashProportion[2]
   + 0.0284673195171943 cashProportion[3] - 0.0585288089273514 x[2,1]
   - 0.1959690275563653 x[2,2] - 0.2826235481667047 x[2,3]
   - 0.1641425643361421 x[2,4] - 0.2377021179685721 x[2,5]
   - 0.0325666135276702 x[2,6] + 0.0585288089273514 x[3,1]
   + 0.1959690275563653 x[3,2] + 0.2826235481667047 x[3,3]
   + 0.1641425643361421 x[3,4] + 0.2377021179685721 x[3,5]
   + 0.0325666135276702 x[3,6] >= 0
Bounds
 z <= 1
 -infinity <= cashProportion[1] <= 1
 -infinity <= cashProportion[2] <= 1
 -infinity <= cashProportion[3] <= 1
Binaries
 x[1,1] x[1,2] x[1,3] x[1,4] x[1,5] x[1,6] x[2,1] x[2,2] x[2,3] x[2,4]
 x[2,5] x[2,6] x[3,1] x[3,2] x[3,3] x[3,4] x[3,5] x[3,6]
End
